Y1names = ["Joseph Caravella","Jordan Coffey","Marcus Davis","Jackson Weaver","J.J. Westmoreland","Hannah Willey"];
Y1vac1= [10,2,5];
Y1vac2= [10,2,5];
Y1vac3= [11,1,4];
Y1vac4= [9,12,4];
Y1vac5= [12,2,6];
Y1vac6= [10,1,4];

Y2names = ["Cody Bushyhead","Prabh Khunkhun","Jay Napolitano","Andrew Oracz","Natasha Rezvani","Steven Vo"];
Y2vac1= [9,12,3,6];
Y2vac2= [9,12,4,6];
Y2vac3= [11,3,5,6];
Y2vac4= [10,2,4,6];
Y2vac5= [8,12,2,4];
Y2vac6= [12,1,3,5];

Y3names = ["Bryce Chapman","Charlie Dean","Read Founds","Marshall Frieden","Shonte Joseph","Chris Van Hise"];
Y3vac1= [11,3,5,6];
Y3vac2= [8,10,1,2];
Y3vac3= [11,12,2,4];
Y3vac4= [8,12,2,3];
Y3vac5= [7,12,2,4];
Y3vac6= [8,11,2,5];